NAME: sphere_cap_rand_nol_10x1
COMMENT: type = spherical_cap, neigh_ang = 0.174532925199, neigh_size = 10
COMMENT: sphere_limit = 1.0471975512, rect_limit = [-1.0471975512, 0.785398163397, -0.785398163397, 1.57079632679]
TYPE: GTSP
DIMENSION: 10
GTSP_SETS: 10
EDGE_WEIGHT_TYPE: GEOM
NODE_COORD_SECTION:
1 54.7351273131 61.7274977069
2 -82.3985184383 -29.2386879659
3 84.2613710921 18.4755554341
4 -70.9243294002 21.6210583855
5 -37.1974877881 33.7129998769
6 47.399012043 -44.4745908617
7 18.479762074 19.1473136226
8 0.172844914074 -52.6688537454
9 -78.9592468546 -70.735436522
10 -7.04252607704 21.7615250843
GTSP_SET_SECTION:
1 1 -1
2 2 -1
3 3 -1
4 4 -1
5 5 -1
6 6 -1
7 7 -1
8 8 -1
9 9 -1
10 10 -1
EOF
